% Logging successfully configured
%%%mzn-stat: initTime=0.005298667
%%%mzn-stat: objective=683
%%%mzn-stat: nodes=257
%%%mzn-stat: restarts=0
%%%mzn-stat: peakDepth=257
%%%mzn-stat: solveTime=0.000831818
%%%mzn-stat: variables=512
%%%mzn-stat: propagators=362
%%%mzn-stat: failures=0
%%%mzn-stat: propagations=1201
%%%mzn-stat: nogoods=0
%%%mzn-stat: numAtomicConstraintsPropagated=0
%%%mzn-stat: allDifferentNumber1PropagationsTotal=37
%%%mzn-stat: allDifferentNumber1PropagationsThatFoundConflict=0
%%%mzn-stat: allDifferentNumber1PropagationsThatPruned=18
%%%mzn-stat: allDifferentNumber1TotalValuesPruned=111
%%%mzn-stat: allDifferentNumber1TotalHallSetSizeConflict=0
%%%mzn-stat: allDifferentNumber1NumberOfConflicts=0
%%%mzn-stat: allDifferentNumber1MaxHallSetSizeConflict=0
%%%mzn-stat: allDifferentNumber1TotalPruningHallSetSize=112
%%%mzn-stat: allDifferentNumber1NumberOfPruningExplanations=111
%%%mzn-stat: allDifferentNumber1MaxPruningHallSetSize=2
%%%mzn-stat: allDifferentNumber1TotalFixedEdgesAtConflict=0
%%%mzn-stat: allDifferentNumber1TotalVarsInvolvedInPruning=111
%%%mzn-stat: allDifferentNumber1MaxValuesPrunedFromSingleVar=1
%%%mzn-stat: allDifferentNumber1TotalSccSizeAtPruning=19
%%%mzn-stat: allDifferentNumber1NumberOfSccPruningCalls=18
%%%mzn-stat: circuitNumber2PropagationsThatFoundConflict=0
%%%mzn-stat: circuitNumber2TotalFixedEdgesAtConflict=0
%%%mzn-stat: circuitNumber2NumberOfConflicts=0
%%%mzn-stat: circuitNumber2PropagationsThatPruned=0
%%%mzn-stat: circuitNumber2PropagationsTotal=19
%%%mzn-stat: AverageConflictSize=0
%%%mzn-stat: NumUnitNogoodsLearned=0
%%%mzn-stat: AverageLearnedNogoodLength=0
%%%mzn-stat: AverageBacktrackAmount=0
%%%mzn-stat: AverageLbd=0
%%%mzn-stat: 2AutonomousSearchNumBackupCalled=238
%%%mzn-stat: 2AutonomousSearchNumPredicatesRemoved=0
%%%mzn-stat: 2AutonomousSearchNumCalls=239
%%%mzn-stat: 2AutonomousSearchNumPredicatesAdded=0
%%%mzn-stat: 2AutonomousSearchAverageSizeOfHeap=0
%%%mzn-stat: 2AutonomousSearchNumAssignedPredicatesEncountered=0
%%%mzn-stat-end
maxleg = 683;
succ = array1d(1..20,[3, 4, 5, 6, 2, 7, 8, 9, 11, 12, 13, 15, 10, 16, 17, 1, 18, 19, 20, 14]);
% time elapsed: 0.36 s
----------
%%%mzn-stat: initTime=0.005298667
%%%mzn-stat: objective=668
%%%mzn-stat: nodes=502
%%%mzn-stat: restarts=0
%%%mzn-stat: peakDepth=257
%%%mzn-stat: solveTime=0.001493847
%%%mzn-stat: variables=512
%%%mzn-stat: propagators=362
%%%mzn-stat: failures=0
%%%mzn-stat: propagations=1800
%%%mzn-stat: nogoods=0
%%%mzn-stat: numAtomicConstraintsPropagated=0
%%%mzn-stat: allDifferentNumber1PropagationsTotal=71
%%%mzn-stat: allDifferentNumber1PropagationsThatFoundConflict=0
%%%mzn-stat: allDifferentNumber1PropagationsThatPruned=35
%%%mzn-stat: allDifferentNumber1TotalValuesPruned=218
%%%mzn-stat: allDifferentNumber1TotalHallSetSizeConflict=0
%%%mzn-stat: allDifferentNumber1NumberOfConflicts=0
%%%mzn-stat: allDifferentNumber1MaxHallSetSizeConflict=0
%%%mzn-stat: allDifferentNumber1TotalPruningHallSetSize=226
%%%mzn-stat: allDifferentNumber1NumberOfPruningExplanations=218
%%%mzn-stat: allDifferentNumber1MaxPruningHallSetSize=4
%%%mzn-stat: allDifferentNumber1TotalFixedEdgesAtConflict=0
%%%mzn-stat: allDifferentNumber1TotalVarsInvolvedInPruning=217
%%%mzn-stat: allDifferentNumber1MaxValuesPrunedFromSingleVar=2
%%%mzn-stat: allDifferentNumber1TotalSccSizeAtPruning=44
%%%mzn-stat: allDifferentNumber1NumberOfSccPruningCalls=35
%%%mzn-stat: circuitNumber2PropagationsThatFoundConflict=0
%%%mzn-stat: circuitNumber2TotalFixedEdgesAtConflict=0
%%%mzn-stat: circuitNumber2NumberOfConflicts=0
%%%mzn-stat: circuitNumber2PropagationsThatPruned=2
%%%mzn-stat: circuitNumber2PropagationsTotal=37
%%%mzn-stat: AverageConflictSize=0
%%%mzn-stat: NumUnitNogoodsLearned=0
%%%mzn-stat: AverageLearnedNogoodLength=0
%%%mzn-stat: AverageBacktrackAmount=0
%%%mzn-stat: AverageLbd=0
%%%mzn-stat: 2AutonomousSearchNumBackupCalled=467
%%%mzn-stat: 2AutonomousSearchNumPredicatesRemoved=0
%%%mzn-stat: 2AutonomousSearchNumCalls=469
%%%mzn-stat: 2AutonomousSearchNumPredicatesAdded=0
%%%mzn-stat: 2AutonomousSearchAverageSizeOfHeap=0
%%%mzn-stat: 2AutonomousSearchNumAssignedPredicatesEncountered=0
%%%mzn-stat-end
maxleg = 668;
succ = array1d(1..20,[3, 4, 5, 6, 2, 7, 8, 9, 11, 12, 13, 15, 10, 16, 17, 19, 20, 1, 18, 14]);
% time elapsed: 0.36 s
----------
%%%mzn-stat: initTime=0.005298667
%%%mzn-stat: objective=660
%%%mzn-stat: nodes=743
%%%mzn-stat: restarts=0
%%%mzn-stat: peakDepth=257
%%%mzn-stat: solveTime=0.002135113
%%%mzn-stat: variables=512
%%%mzn-stat: propagators=362
%%%mzn-stat: failures=0
%%%mzn-stat: propagations=2416
%%%mzn-stat: nogoods=0
%%%mzn-stat: numAtomicConstraintsPropagated=0
%%%mzn-stat: allDifferentNumber1PropagationsTotal=106
%%%mzn-stat: allDifferentNumber1PropagationsThatFoundConflict=0
%%%mzn-stat: allDifferentNumber1PropagationsThatPruned=53
%%%mzn-stat: allDifferentNumber1TotalValuesPruned=322
%%%mzn-stat: allDifferentNumber1TotalHallSetSizeConflict=0
%%%mzn-stat: allDifferentNumber1NumberOfConflicts=0
%%%mzn-stat: allDifferentNumber1MaxHallSetSizeConflict=0
%%%mzn-stat: allDifferentNumber1TotalPruningHallSetSize=337
%%%mzn-stat: allDifferentNumber1NumberOfPruningExplanations=322
%%%mzn-stat: allDifferentNumber1MaxPruningHallSetSize=4
%%%mzn-stat: allDifferentNumber1TotalFixedEdgesAtConflict=0
%%%mzn-stat: allDifferentNumber1TotalVarsInvolvedInPruning=320
%%%mzn-stat: allDifferentNumber1MaxValuesPrunedFromSingleVar=2
%%%mzn-stat: allDifferentNumber1TotalSccSizeAtPruning=70
%%%mzn-stat: allDifferentNumber1NumberOfSccPruningCalls=53
%%%mzn-stat: circuitNumber2PropagationsThatFoundConflict=0
%%%mzn-stat: circuitNumber2TotalFixedEdgesAtConflict=0
%%%mzn-stat: circuitNumber2NumberOfConflicts=0
%%%mzn-stat: circuitNumber2PropagationsThatPruned=4
%%%mzn-stat: circuitNumber2PropagationsTotal=55
%%%mzn-stat: AverageConflictSize=0
%%%mzn-stat: NumUnitNogoodsLearned=0
%%%mzn-stat: AverageLearnedNogoodLength=0
%%%mzn-stat: AverageBacktrackAmount=0
%%%mzn-stat: AverageLbd=0
%%%mzn-stat: 2AutonomousSearchNumBackupCalled=692
%%%mzn-stat: 2AutonomousSearchNumPredicatesRemoved=0
%%%mzn-stat: 2AutonomousSearchNumCalls=695
%%%mzn-stat: 2AutonomousSearchNumPredicatesAdded=0
%%%mzn-stat: 2AutonomousSearchAverageSizeOfHeap=0
%%%mzn-stat: 2AutonomousSearchNumAssignedPredicatesEncountered=0
%%%mzn-stat-end
maxleg = 660;
succ = array1d(1..20,[3, 4, 5, 6, 2, 7, 8, 11, 13, 12, 9, 15, 10, 16, 17, 19, 20, 1, 18, 14]);
% time elapsed: 0.36 s
----------
%%%mzn-stat: initTime=0.005298667
%%%mzn-stat: objective=652
%%%mzn-stat: nodes=959
%%%mzn-stat: restarts=0
%%%mzn-stat: peakDepth=257
%%%mzn-stat: solveTime=0.002753888
%%%mzn-stat: variables=512
%%%mzn-stat: propagators=362
%%%mzn-stat: failures=0
%%%mzn-stat: propagations=3041
%%%mzn-stat: nogoods=0
%%%mzn-stat: numAtomicConstraintsPropagated=0
%%%mzn-stat: allDifferentNumber1PropagationsTotal=141
%%%mzn-stat: allDifferentNumber1PropagationsThatFoundConflict=0
%%%mzn-stat: allDifferentNumber1PropagationsThatPruned=71
%%%mzn-stat: allDifferentNumber1TotalValuesPruned=423
%%%mzn-stat: allDifferentNumber1TotalHallSetSizeConflict=0
%%%mzn-stat: allDifferentNumber1NumberOfConflicts=0
%%%mzn-stat: allDifferentNumber1MaxHallSetSizeConflict=0
%%%mzn-stat: allDifferentNumber1TotalPruningHallSetSize=445
%%%mzn-stat: allDifferentNumber1NumberOfPruningExplanations=423
%%%mzn-stat: allDifferentNumber1MaxPruningHallSetSize=4
%%%mzn-stat: allDifferentNumber1TotalFixedEdgesAtConflict=0
%%%mzn-stat: allDifferentNumber1TotalVarsInvolvedInPruning=420
%%%mzn-stat: allDifferentNumber1MaxValuesPrunedFromSingleVar=2
%%%mzn-stat: allDifferentNumber1TotalSccSizeAtPruning=96
%%%mzn-stat: allDifferentNumber1NumberOfSccPruningCalls=71
%%%mzn-stat: circuitNumber2PropagationsThatFoundConflict=0
%%%mzn-stat: circuitNumber2TotalFixedEdgesAtConflict=0
%%%mzn-stat: circuitNumber2NumberOfConflicts=0
%%%mzn-stat: circuitNumber2PropagationsThatPruned=6
%%%mzn-stat: circuitNumber2PropagationsTotal=73
%%%mzn-stat: AverageConflictSize=0
%%%mzn-stat: NumUnitNogoodsLearned=0
%%%mzn-stat: AverageLearnedNogoodLength=0
%%%mzn-stat: AverageBacktrackAmount=0
%%%mzn-stat: AverageLbd=0
%%%mzn-stat: 2AutonomousSearchNumBackupCalled=892
%%%mzn-stat: 2AutonomousSearchNumPredicatesRemoved=0
%%%mzn-stat: 2AutonomousSearchNumCalls=896
%%%mzn-stat: 2AutonomousSearchNumPredicatesAdded=0
%%%mzn-stat: 2AutonomousSearchAverageSizeOfHeap=0
%%%mzn-stat: 2AutonomousSearchNumAssignedPredicatesEncountered=0
%%%mzn-stat-end
maxleg = 652;
succ = array1d(1..20,[7, 4, 5, 6, 2, 8, 3, 11, 13, 12, 9, 15, 10, 16, 17, 19, 20, 1, 18, 14]);
% time elapsed: 0.36 s
----------
%%%mzn-stat: initTime=0.005298667
%%%mzn-stat: objective=605
%%%mzn-stat: nodes=1164
%%%mzn-stat: restarts=0
%%%mzn-stat: peakDepth=257
%%%mzn-stat: solveTime=0.004345769
%%%mzn-stat: variables=512
%%%mzn-stat: propagators=362
%%%mzn-stat: failures=6
%%%mzn-stat: propagations=3852
%%%mzn-stat: nogoods=6
%%%mzn-stat: numAtomicConstraintsPropagated=0
%%%mzn-stat: allDifferentNumber1PropagationsTotal=196
%%%mzn-stat: allDifferentNumber1PropagationsThatFoundConflict=0
%%%mzn-stat: allDifferentNumber1PropagationsThatPruned=102
%%%mzn-stat: allDifferentNumber1TotalValuesPruned=560
%%%mzn-stat: allDifferentNumber1TotalHallSetSizeConflict=0
%%%mzn-stat: allDifferentNumber1NumberOfConflicts=0
%%%mzn-stat: allDifferentNumber1MaxHallSetSizeConflict=0
%%%mzn-stat: allDifferentNumber1TotalPruningHallSetSize=625
%%%mzn-stat: allDifferentNumber1NumberOfPruningExplanations=560
%%%mzn-stat: allDifferentNumber1MaxPruningHallSetSize=6
%%%mzn-stat: allDifferentNumber1TotalFixedEdgesAtConflict=0
%%%mzn-stat: allDifferentNumber1TotalVarsInvolvedInPruning=549
%%%mzn-stat: allDifferentNumber1MaxValuesPrunedFromSingleVar=2
%%%mzn-stat: allDifferentNumber1TotalSccSizeAtPruning=172
%%%mzn-stat: allDifferentNumber1NumberOfSccPruningCalls=102
%%%mzn-stat: circuitNumber2PropagationsThatFoundConflict=6
%%%mzn-stat: circuitNumber2TotalFixedEdgesAtConflict=110
%%%mzn-stat: circuitNumber2NumberOfConflicts=6
%%%mzn-stat: circuitNumber2PropagationsThatPruned=12
%%%mzn-stat: circuitNumber2PropagationsTotal=104
%%%mzn-stat: AverageConflictSize=10.666666666666666
%%%mzn-stat: NumUnitNogoodsLearned=0
%%%mzn-stat: AverageLearnedNogoodLength=27.5
%%%mzn-stat: AverageBacktrackAmount=0
%%%mzn-stat: AverageLbd=13.333333333333334
%%%mzn-stat: 2AutonomousSearchNumBackupCalled=1074
%%%mzn-stat: 2AutonomousSearchNumPredicatesRemoved=0
%%%mzn-stat: 2AutonomousSearchNumCalls=1079
%%%mzn-stat: 2AutonomousSearchNumPredicatesAdded=221
%%%mzn-stat: 2AutonomousSearchAverageSizeOfHeap=0.20481927710843373
%%%mzn-stat: 2AutonomousSearchNumAssignedPredicatesEncountered=221
%%%mzn-stat-end
maxleg = 605;
succ = array1d(1..20,[7, 4, 5, 6, 2, 8, 3, 11, 13, 12, 9, 15, 14, 16, 17, 19, 18, 1, 20, 10]);
% time elapsed: 0.36 s
----------
%%%mzn-stat: initTime=0.005298667
%%%mzn-stat: objective=576
%%%mzn-stat: nodes=1367
%%%mzn-stat: restarts=0
%%%mzn-stat: peakDepth=257
%%%mzn-stat: solveTime=0.005003879
%%%mzn-stat: variables=512
%%%mzn-stat: propagators=362
%%%mzn-stat: failures=6
%%%mzn-stat: propagations=4495
%%%mzn-stat: nogoods=6
%%%mzn-stat: numAtomicConstraintsPropagated=0
%%%mzn-stat: allDifferentNumber1PropagationsTotal=229
%%%mzn-stat: allDifferentNumber1PropagationsThatFoundConflict=0
%%%mzn-stat: allDifferentNumber1PropagationsThatPruned=119
%%%mzn-stat: allDifferentNumber1TotalValuesPruned=652
%%%mzn-stat: allDifferentNumber1TotalHallSetSizeConflict=0
%%%mzn-stat: allDifferentNumber1NumberOfConflicts=0
%%%mzn-stat: allDifferentNumber1MaxHallSetSizeConflict=0
%%%mzn-stat: allDifferentNumber1TotalPruningHallSetSize=767
%%%mzn-stat: allDifferentNumber1NumberOfPruningExplanations=652
%%%mzn-stat: allDifferentNumber1MaxPruningHallSetSize=7
%%%mzn-stat: allDifferentNumber1TotalFixedEdgesAtConflict=0
%%%mzn-stat: allDifferentNumber1TotalVarsInvolvedInPruning=638
%%%mzn-stat: allDifferentNumber1MaxValuesPrunedFromSingleVar=4
%%%mzn-stat: allDifferentNumber1TotalSccSizeAtPruning=204
%%%mzn-stat: allDifferentNumber1NumberOfSccPruningCalls=119
%%%mzn-stat: circuitNumber2PropagationsThatFoundConflict=6
%%%mzn-stat: circuitNumber2TotalFixedEdgesAtConflict=110
%%%mzn-stat: circuitNumber2NumberOfConflicts=6
%%%mzn-stat: circuitNumber2PropagationsThatPruned=13
%%%mzn-stat: circuitNumber2PropagationsTotal=120
%%%mzn-stat: AverageConflictSize=10.666666666666666
%%%mzn-stat: NumUnitNogoodsLearned=0
%%%mzn-stat: AverageLearnedNogoodLength=27.5
%%%mzn-stat: AverageBacktrackAmount=0
%%%mzn-stat: AverageLbd=13.333333333333334
%%%mzn-stat: 2AutonomousSearchNumBackupCalled=1261
%%%mzn-stat: 2AutonomousSearchNumPredicatesRemoved=0
%%%mzn-stat: 2AutonomousSearchNumCalls=1267
%%%mzn-stat: 2AutonomousSearchNumPredicatesAdded=221
%%%mzn-stat: 2AutonomousSearchAverageSizeOfHeap=0.34885556432517756
%%%mzn-stat: 2AutonomousSearchNumAssignedPredicatesEncountered=442
%%%mzn-stat-end
maxleg = 576;
succ = array1d(1..20,[7, 4, 5, 6, 2, 8, 3, 11, 13, 14, 9, 15, 10, 16, 1, 19, 12, 17, 20, 18]);
% time elapsed: 0.36 s
----------
%%%mzn-stat: initTime=0.005298667
%%%mzn-stat: objective=575
%%%mzn-stat: nodes=1578
%%%mzn-stat: restarts=0
%%%mzn-stat: peakDepth=257
%%%mzn-stat: solveTime=0.005687533
%%%mzn-stat: variables=512
%%%mzn-stat: propagators=362
%%%mzn-stat: failures=6
%%%mzn-stat: propagations=5112
%%%mzn-stat: nogoods=6
%%%mzn-stat: numAtomicConstraintsPropagated=0
%%%mzn-stat: allDifferentNumber1PropagationsTotal=262
%%%mzn-stat: allDifferentNumber1PropagationsThatFoundConflict=0
%%%mzn-stat: allDifferentNumber1PropagationsThatPruned=136
%%%mzn-stat: allDifferentNumber1TotalValuesPruned=743
%%%mzn-stat: allDifferentNumber1TotalHallSetSizeConflict=0
%%%mzn-stat: allDifferentNumber1NumberOfConflicts=0
%%%mzn-stat: allDifferentNumber1MaxHallSetSizeConflict=0
%%%mzn-stat: allDifferentNumber1TotalPruningHallSetSize=908
%%%mzn-stat: allDifferentNumber1NumberOfPruningExplanations=743
%%%mzn-stat: allDifferentNumber1MaxPruningHallSetSize=7
%%%mzn-stat: allDifferentNumber1TotalFixedEdgesAtConflict=0
%%%mzn-stat: allDifferentNumber1TotalVarsInvolvedInPruning=726
%%%mzn-stat: allDifferentNumber1MaxValuesPrunedFromSingleVar=4
%%%mzn-stat: allDifferentNumber1TotalSccSizeAtPruning=236
%%%mzn-stat: allDifferentNumber1NumberOfSccPruningCalls=136
%%%mzn-stat: circuitNumber2PropagationsThatFoundConflict=6
%%%mzn-stat: circuitNumber2TotalFixedEdgesAtConflict=110
%%%mzn-stat: circuitNumber2NumberOfConflicts=6
%%%mzn-stat: circuitNumber2PropagationsThatPruned=14
%%%mzn-stat: circuitNumber2PropagationsTotal=136
%%%mzn-stat: AverageConflictSize=10.666666666666666
%%%mzn-stat: NumUnitNogoodsLearned=0
%%%mzn-stat: AverageLearnedNogoodLength=27.5
%%%mzn-stat: AverageBacktrackAmount=0
%%%mzn-stat: AverageLbd=13.333333333333334
%%%mzn-stat: 2AutonomousSearchNumBackupCalled=1457
%%%mzn-stat: 2AutonomousSearchNumPredicatesRemoved=0
%%%mzn-stat: 2AutonomousSearchNumCalls=1464
%%%mzn-stat: 2AutonomousSearchNumPredicatesAdded=221
%%%mzn-stat: 2AutonomousSearchAverageSizeOfHeap=0.45286885245901637
%%%mzn-stat: 2AutonomousSearchNumAssignedPredicatesEncountered=663
%%%mzn-stat-end
maxleg = 575;
succ = array1d(1..20,[7, 4, 5, 6, 2, 8, 3, 11, 13, 14, 9, 17, 10, 16, 1, 19, 15, 12, 20, 18]);
% time elapsed: 0.36 s
----------
%%%mzn-stat: initTime=0.005298667
%%%mzn-stat: objective=551
%%%mzn-stat: nodes=1773
%%%mzn-stat: restarts=0
%%%mzn-stat: peakDepth=257
%%%mzn-stat: solveTime=0.006478056
%%%mzn-stat: variables=512
%%%mzn-stat: propagators=362
%%%mzn-stat: failures=6
%%%mzn-stat: propagations=5747
%%%mzn-stat: nogoods=6
%%%mzn-stat: numAtomicConstraintsPropagated=0
%%%mzn-stat: allDifferentNumber1PropagationsTotal=296
%%%mzn-stat: allDifferentNumber1PropagationsThatFoundConflict=0
%%%mzn-stat: allDifferentNumber1PropagationsThatPruned=153
%%%mzn-stat: allDifferentNumber1TotalValuesPruned=832
%%%mzn-stat: allDifferentNumber1TotalHallSetSizeConflict=0
%%%mzn-stat: allDifferentNumber1NumberOfConflicts=0
%%%mzn-stat: allDifferentNumber1MaxHallSetSizeConflict=0
%%%mzn-stat: allDifferentNumber1TotalPruningHallSetSize=1039
%%%mzn-stat: allDifferentNumber1NumberOfPruningExplanations=832
%%%mzn-stat: allDifferentNumber1MaxPruningHallSetSize=7
%%%mzn-stat: allDifferentNumber1TotalFixedEdgesAtConflict=0
%%%mzn-stat: allDifferentNumber1TotalVarsInvolvedInPruning=812
%%%mzn-stat: allDifferentNumber1MaxValuesPrunedFromSingleVar=4
%%%mzn-stat: allDifferentNumber1TotalSccSizeAtPruning=266
%%%mzn-stat: allDifferentNumber1NumberOfSccPruningCalls=153
%%%mzn-stat: circuitNumber2PropagationsThatFoundConflict=6
%%%mzn-stat: circuitNumber2TotalFixedEdgesAtConflict=110
%%%mzn-stat: circuitNumber2NumberOfConflicts=6
%%%mzn-stat: circuitNumber2PropagationsThatPruned=14
%%%mzn-stat: circuitNumber2PropagationsTotal=152
%%%mzn-stat: AverageConflictSize=10.666666666666666
%%%mzn-stat: NumUnitNogoodsLearned=0
%%%mzn-stat: AverageLearnedNogoodLength=27.5
%%%mzn-stat: AverageBacktrackAmount=0
%%%mzn-stat: AverageLbd=13.333333333333334
%%%mzn-stat: 2AutonomousSearchNumBackupCalled=1635
%%%mzn-stat: 2AutonomousSearchNumPredicatesRemoved=0
%%%mzn-stat: 2AutonomousSearchNumCalls=1643
%%%mzn-stat: 2AutonomousSearchNumPredicatesAdded=221
%%%mzn-stat: 2AutonomousSearchAverageSizeOfHeap=0.5380401704199634
%%%mzn-stat: 2AutonomousSearchNumAssignedPredicatesEncountered=884
%%%mzn-stat-end
maxleg = 551;
succ = array1d(1..20,[8, 4, 5, 6, 2, 7, 9, 3, 11, 13, 16, 17, 14, 19, 1, 10, 15, 12, 20, 18]);
% time elapsed: 0.36 s
----------
%%%mzn-stat: initTime=0.005298667
%%%mzn-stat: objective=541
%%%mzn-stat: nodes=1960
%%%mzn-stat: restarts=0
%%%mzn-stat: peakDepth=257
%%%mzn-stat: solveTime=0.007123634
%%%mzn-stat: variables=512
%%%mzn-stat: propagators=362
%%%mzn-stat: failures=6
%%%mzn-stat: propagations=6397
%%%mzn-stat: nogoods=6
%%%mzn-stat: numAtomicConstraintsPropagated=0
%%%mzn-stat: allDifferentNumber1PropagationsTotal=329
%%%mzn-stat: allDifferentNumber1PropagationsThatFoundConflict=0
%%%mzn-stat: allDifferentNumber1PropagationsThatPruned=170
%%%mzn-stat: allDifferentNumber1TotalValuesPruned=919
%%%mzn-stat: allDifferentNumber1TotalHallSetSizeConflict=0
%%%mzn-stat: allDifferentNumber1NumberOfConflicts=0
%%%mzn-stat: allDifferentNumber1MaxHallSetSizeConflict=0
%%%mzn-stat: allDifferentNumber1TotalPruningHallSetSize=1163
%%%mzn-stat: allDifferentNumber1NumberOfPruningExplanations=919
%%%mzn-stat: allDifferentNumber1MaxPruningHallSetSize=7
%%%mzn-stat: allDifferentNumber1TotalFixedEdgesAtConflict=0
%%%mzn-stat: allDifferentNumber1TotalVarsInvolvedInPruning=896
%%%mzn-stat: allDifferentNumber1MaxValuesPrunedFromSingleVar=4
%%%mzn-stat: allDifferentNumber1TotalSccSizeAtPruning=296
%%%mzn-stat: allDifferentNumber1NumberOfSccPruningCalls=170
%%%mzn-stat: circuitNumber2PropagationsThatFoundConflict=6
%%%mzn-stat: circuitNumber2TotalFixedEdgesAtConflict=110
%%%mzn-stat: circuitNumber2NumberOfConflicts=6
%%%mzn-stat: circuitNumber2PropagationsThatPruned=15
%%%mzn-stat: circuitNumber2PropagationsTotal=168
%%%mzn-stat: AverageConflictSize=10.666666666666666
%%%mzn-stat: NumUnitNogoodsLearned=0
%%%mzn-stat: AverageLearnedNogoodLength=27.5
%%%mzn-stat: AverageBacktrackAmount=0
%%%mzn-stat: AverageLbd=13.333333333333334
%%%mzn-stat: 2AutonomousSearchNumBackupCalled=1806
%%%mzn-stat: 2AutonomousSearchNumPredicatesRemoved=0
%%%mzn-stat: 2AutonomousSearchNumCalls=1815
%%%mzn-stat: 2AutonomousSearchNumPredicatesAdded=221
%%%mzn-stat: 2AutonomousSearchAverageSizeOfHeap=0.6088154269972452
%%%mzn-stat: 2AutonomousSearchNumAssignedPredicatesEncountered=1105
%%%mzn-stat-end
maxleg = 541;
succ = array1d(1..20,[8, 4, 5, 6, 2, 7, 9, 3, 11, 13, 16, 17, 14, 20, 1, 19, 15, 12, 10, 18]);
% time elapsed: 0.36 s
----------
%%%mzn-stat: initTime=0.005298667
%%%mzn-stat: objective=489
%%%mzn-stat: nodes=2130
%%%mzn-stat: restarts=0
%%%mzn-stat: peakDepth=257
%%%mzn-stat: solveTime=0.008656447
%%%mzn-stat: variables=512
%%%mzn-stat: propagators=362
%%%mzn-stat: failures=12
%%%mzn-stat: propagations=7312
%%%mzn-stat: nogoods=12
%%%mzn-stat: numAtomicConstraintsPropagated=0
%%%mzn-stat: allDifferentNumber1PropagationsTotal=388
%%%mzn-stat: allDifferentNumber1PropagationsThatFoundConflict=0
%%%mzn-stat: allDifferentNumber1PropagationsThatPruned=202
%%%mzn-stat: allDifferentNumber1TotalValuesPruned=1047
%%%mzn-stat: allDifferentNumber1TotalHallSetSizeConflict=0
%%%mzn-stat: allDifferentNumber1NumberOfConflicts=0
%%%mzn-stat: allDifferentNumber1MaxHallSetSizeConflict=0
%%%mzn-stat: allDifferentNumber1TotalPruningHallSetSize=1357
%%%mzn-stat: allDifferentNumber1NumberOfPruningExplanations=1047
%%%mzn-stat: allDifferentNumber1MaxPruningHallSetSize=7
%%%mzn-stat: allDifferentNumber1TotalFixedEdgesAtConflict=0
%%%mzn-stat: allDifferentNumber1TotalVarsInvolvedInPruning=1018
%%%mzn-stat: allDifferentNumber1MaxValuesPrunedFromSingleVar=4
%%%mzn-stat: allDifferentNumber1TotalSccSizeAtPruning=395
%%%mzn-stat: allDifferentNumber1NumberOfSccPruningCalls=202
%%%mzn-stat: circuitNumber2PropagationsThatFoundConflict=12
%%%mzn-stat: circuitNumber2TotalFixedEdgesAtConflict=206
%%%mzn-stat: circuitNumber2NumberOfConflicts=12
%%%mzn-stat: circuitNumber2PropagationsThatPruned=19
%%%mzn-stat: circuitNumber2PropagationsTotal=199
%%%mzn-stat: AverageConflictSize=11.166666666666666
%%%mzn-stat: NumUnitNogoodsLearned=0
%%%mzn-stat: AverageLearnedNogoodLength=26.333333333333332
%%%mzn-stat: AverageBacktrackAmount=0
%%%mzn-stat: AverageLbd=12.5
%%%mzn-stat: 2AutonomousSearchNumBackupCalled=1953
%%%mzn-stat: 2AutonomousSearchNumPredicatesRemoved=0
%%%mzn-stat: 2AutonomousSearchNumCalls=1963
%%%mzn-stat: 2AutonomousSearchNumPredicatesAdded=441
%%%mzn-stat: 2AutonomousSearchAverageSizeOfHeap=0.7162506367804381
%%%mzn-stat: 2AutonomousSearchNumAssignedPredicatesEncountered=1406
%%%mzn-stat-end
maxleg = 489;
succ = array1d(1..20,[8, 4, 5, 10, 2, 3, 6, 7, 11, 13, 16, 17, 9, 19, 1, 14, 15, 12, 20, 18]);
% time elapsed: 0.36 s
----------
%%%mzn-stat: initTime=0.005298667
%%%mzn-stat: objective=446
%%%mzn-stat: nodes=2282
%%%mzn-stat: restarts=0
%%%mzn-stat: peakDepth=257
%%%mzn-stat: solveTime=0.010427395
%%%mzn-stat: variables=512
%%%mzn-stat: propagators=362
%%%mzn-stat: failures=21
%%%mzn-stat: propagations=8357
%%%mzn-stat: nogoods=21
%%%mzn-stat: numAtomicConstraintsPropagated=0
%%%mzn-stat: allDifferentNumber1PropagationsTotal=452
%%%mzn-stat: allDifferentNumber1PropagationsThatFoundConflict=0
%%%mzn-stat: allDifferentNumber1PropagationsThatPruned=239
%%%mzn-stat: allDifferentNumber1TotalValuesPruned=1179
%%%mzn-stat: allDifferentNumber1TotalHallSetSizeConflict=0
%%%mzn-stat: allDifferentNumber1NumberOfConflicts=0
%%%mzn-stat: allDifferentNumber1MaxHallSetSizeConflict=0
%%%mzn-stat: allDifferentNumber1TotalPruningHallSetSize=1574
%%%mzn-stat: allDifferentNumber1NumberOfPruningExplanations=1179
%%%mzn-stat: allDifferentNumber1MaxPruningHallSetSize=9
%%%mzn-stat: allDifferentNumber1TotalFixedEdgesAtConflict=0
%%%mzn-stat: allDifferentNumber1TotalVarsInvolvedInPruning=1143
%%%mzn-stat: allDifferentNumber1MaxValuesPrunedFromSingleVar=4
%%%mzn-stat: allDifferentNumber1TotalSccSizeAtPruning=509
%%%mzn-stat: allDifferentNumber1NumberOfSccPruningCalls=239
%%%mzn-stat: circuitNumber2PropagationsThatFoundConflict=21
%%%mzn-stat: circuitNumber2TotalFixedEdgesAtConflict=351
%%%mzn-stat: circuitNumber2NumberOfConflicts=21
%%%mzn-stat: circuitNumber2PropagationsThatPruned=23
%%%mzn-stat: circuitNumber2PropagationsTotal=235
%%%mzn-stat: AverageConflictSize=11.380952380952381
%%%mzn-stat: NumUnitNogoodsLearned=0
%%%mzn-stat: AverageLearnedNogoodLength=25.047619047619047
%%%mzn-stat: AverageBacktrackAmount=0
%%%mzn-stat: AverageLbd=12.095238095238095
%%%mzn-stat: 2AutonomousSearchNumBackupCalled=2080
%%%mzn-stat: 2AutonomousSearchNumPredicatesRemoved=0
%%%mzn-stat: 2AutonomousSearchNumCalls=2091
%%%mzn-stat: 2AutonomousSearchNumPredicatesAdded=656
%%%mzn-stat: 2AutonomousSearchAverageSizeOfHeap=0.8211382113821138
%%%mzn-stat: 2AutonomousSearchNumAssignedPredicatesEncountered=1717
%%%mzn-stat-end
maxleg = 446;
succ = array1d(1..20,[8, 4, 5, 10, 2, 3, 6, 7, 11, 14, 13, 17, 19, 16, 1, 9, 15, 12, 20, 18]);
% time elapsed: 0.36 s
----------
%%%mzn-stat: initTime=0.005298667
%%%mzn-stat: objective=426
%%%mzn-stat: nodes=2420
%%%mzn-stat: restarts=0
%%%mzn-stat: peakDepth=257
%%%mzn-stat: solveTime=0.011045568
%%%mzn-stat: variables=512
%%%mzn-stat: propagators=362
%%%mzn-stat: failures=21
%%%mzn-stat: propagations=9038
%%%mzn-stat: nogoods=21
%%%mzn-stat: numAtomicConstraintsPropagated=0
%%%mzn-stat: allDifferentNumber1PropagationsTotal=480
%%%mzn-stat: allDifferentNumber1PropagationsThatFoundConflict=0
%%%mzn-stat: allDifferentNumber1PropagationsThatPruned=253
%%%mzn-stat: allDifferentNumber1TotalValuesPruned=1246
%%%mzn-stat: allDifferentNumber1TotalHallSetSizeConflict=0
%%%mzn-stat: allDifferentNumber1NumberOfConflicts=0
%%%mzn-stat: allDifferentNumber1MaxHallSetSizeConflict=0
%%%mzn-stat: allDifferentNumber1TotalPruningHallSetSize=1686
%%%mzn-stat: allDifferentNumber1NumberOfPruningExplanations=1246
%%%mzn-stat: allDifferentNumber1MaxPruningHallSetSize=10
%%%mzn-stat: allDifferentNumber1TotalFixedEdgesAtConflict=0
%%%mzn-stat: allDifferentNumber1TotalVarsInvolvedInPruning=1205
%%%mzn-stat: allDifferentNumber1MaxValuesPrunedFromSingleVar=4
%%%mzn-stat: allDifferentNumber1TotalSccSizeAtPruning=549
%%%mzn-stat: allDifferentNumber1NumberOfSccPruningCalls=253
%%%mzn-stat: circuitNumber2PropagationsThatFoundConflict=21
%%%mzn-stat: circuitNumber2TotalFixedEdgesAtConflict=351
%%%mzn-stat: circuitNumber2NumberOfConflicts=21
%%%mzn-stat: circuitNumber2PropagationsThatPruned=23
%%%mzn-stat: circuitNumber2PropagationsTotal=249
%%%mzn-stat: AverageConflictSize=11.380952380952381
%%%mzn-stat: NumUnitNogoodsLearned=0
%%%mzn-stat: AverageLearnedNogoodLength=25.047619047619047
%%%mzn-stat: AverageBacktrackAmount=0
%%%mzn-stat: AverageLbd=12.095238095238095
%%%mzn-stat: 2AutonomousSearchNumBackupCalled=2204
%%%mzn-stat: 2AutonomousSearchNumPredicatesRemoved=0
%%%mzn-stat: 2AutonomousSearchNumCalls=2216
%%%mzn-stat: 2AutonomousSearchNumPredicatesAdded=656
%%%mzn-stat: 2AutonomousSearchAverageSizeOfHeap=0.9151624548736462
%%%mzn-stat: 2AutonomousSearchNumAssignedPredicatesEncountered=2028
%%%mzn-stat-end
maxleg = 426;
succ = array1d(1..20,[8, 4, 5, 10, 2, 3, 6, 7, 11, 14, 13, 17, 19, 16, 1, 9, 18, 15, 20, 12]);
% time elapsed: 0.36 s
----------
%%%mzn-stat: initTime=0.005298667
%%%mzn-stat: objective=379
%%%mzn-stat: nodes=2536
%%%mzn-stat: restarts=0
%%%mzn-stat: peakDepth=257
%%%mzn-stat: solveTime=0.011673105
%%%mzn-stat: variables=512
%%%mzn-stat: propagators=362
%%%mzn-stat: failures=21
%%%mzn-stat: propagations=9722
%%%mzn-stat: nogoods=21
%%%mzn-stat: numAtomicConstraintsPropagated=0
%%%mzn-stat: allDifferentNumber1PropagationsTotal=508
%%%mzn-stat: allDifferentNumber1PropagationsThatFoundConflict=0
%%%mzn-stat: allDifferentNumber1PropagationsThatPruned=267
%%%mzn-stat: allDifferentNumber1TotalValuesPruned=1308
%%%mzn-stat: allDifferentNumber1TotalHallSetSizeConflict=0
%%%mzn-stat: allDifferentNumber1NumberOfConflicts=0
%%%mzn-stat: allDifferentNumber1MaxHallSetSizeConflict=0
%%%mzn-stat: allDifferentNumber1TotalPruningHallSetSize=1803
%%%mzn-stat: allDifferentNumber1NumberOfPruningExplanations=1308
%%%mzn-stat: allDifferentNumber1MaxPruningHallSetSize=11
%%%mzn-stat: allDifferentNumber1TotalFixedEdgesAtConflict=0
%%%mzn-stat: allDifferentNumber1TotalVarsInvolvedInPruning=1264
%%%mzn-stat: allDifferentNumber1MaxValuesPrunedFromSingleVar=4
%%%mzn-stat: allDifferentNumber1TotalSccSizeAtPruning=588
%%%mzn-stat: allDifferentNumber1NumberOfSccPruningCalls=267
%%%mzn-stat: circuitNumber2PropagationsThatFoundConflict=21
%%%mzn-stat: circuitNumber2TotalFixedEdgesAtConflict=351
%%%mzn-stat: circuitNumber2NumberOfConflicts=21
%%%mzn-stat: circuitNumber2PropagationsThatPruned=24
%%%mzn-stat: circuitNumber2PropagationsTotal=264
%%%mzn-stat: AverageConflictSize=11.380952380952381
%%%mzn-stat: NumUnitNogoodsLearned=0
%%%mzn-stat: AverageLearnedNogoodLength=25.047619047619047
%%%mzn-stat: AverageBacktrackAmount=0
%%%mzn-stat: AverageLbd=12.095238095238095
%%%mzn-stat: 2AutonomousSearchNumBackupCalled=2306
%%%mzn-stat: 2AutonomousSearchNumPredicatesRemoved=0
%%%mzn-stat: 2AutonomousSearchNumCalls=2319
%%%mzn-stat: 2AutonomousSearchNumPredicatesAdded=656
%%%mzn-stat: 2AutonomousSearchAverageSizeOfHeap=1.0086244070720138
%%%mzn-stat: 2AutonomousSearchNumAssignedPredicatesEncountered=2339
%%%mzn-stat-end
maxleg = 379;
succ = array1d(1..20,[8, 4, 5, 10, 2, 3, 6, 11, 7, 14, 9, 17, 16, 13, 1, 19, 18, 15, 20, 12]);
% time elapsed: 0.36 s
----------
==========
% time elapsed: 0.36 s
%%%mzn-stat: initTime=0.005298667
%%%mzn-stat: objective=379
%%%mzn-stat: nodes=2536
%%%mzn-stat: restarts=0
%%%mzn-stat: peakDepth=257
%%%mzn-stat: solveTime=0.011982765
%%%mzn-stat: variables=512
%%%mzn-stat: propagators=362
%%%mzn-stat: failures=22
%%%mzn-stat: propagations=10011
%%%mzn-stat: nogoods=22
%%%mzn-stat: numAtomicConstraintsPropagated=0
%%%mzn-stat: allDifferentNumber1PropagationsTotal=509
%%%mzn-stat: allDifferentNumber1PropagationsThatFoundConflict=0
%%%mzn-stat: allDifferentNumber1PropagationsThatPruned=268
%%%mzn-stat: allDifferentNumber1TotalValuesPruned=1314
%%%mzn-stat: allDifferentNumber1TotalHallSetSizeConflict=0
%%%mzn-stat: allDifferentNumber1NumberOfConflicts=0
%%%mzn-stat: allDifferentNumber1MaxHallSetSizeConflict=0
%%%mzn-stat: allDifferentNumber1TotalPruningHallSetSize=1863
%%%mzn-stat: allDifferentNumber1NumberOfPruningExplanations=1314
%%%mzn-stat: allDifferentNumber1MaxPruningHallSetSize=19
%%%mzn-stat: allDifferentNumber1TotalFixedEdgesAtConflict=0
%%%mzn-stat: allDifferentNumber1TotalVarsInvolvedInPruning=1268
%%%mzn-stat: allDifferentNumber1MaxValuesPrunedFromSingleVar=4
%%%mzn-stat: allDifferentNumber1TotalSccSizeAtPruning=625
%%%mzn-stat: allDifferentNumber1NumberOfSccPruningCalls=268
%%%mzn-stat: circuitNumber2PropagationsThatFoundConflict=22
%%%mzn-stat: circuitNumber2TotalFixedEdgesAtConflict=353
%%%mzn-stat: circuitNumber2NumberOfConflicts=22
%%%mzn-stat: circuitNumber2PropagationsThatPruned=24
%%%mzn-stat: circuitNumber2PropagationsTotal=265
%%%mzn-stat: AverageConflictSize=10.954545454545455
%%%mzn-stat: NumUnitNogoodsLearned=1
%%%mzn-stat: AverageLearnedNogoodLength=23.954545454545453
%%%mzn-stat: AverageBacktrackAmount=0
%%%mzn-stat: AverageLbd=11.590909090909092
%%%mzn-stat: 2AutonomousSearchNumBackupCalled=2306
%%%mzn-stat: 2AutonomousSearchNumPredicatesRemoved=0
%%%mzn-stat: 2AutonomousSearchNumCalls=2319
%%%mzn-stat: 2AutonomousSearchNumPredicatesAdded=917
%%%mzn-stat: 2AutonomousSearchAverageSizeOfHeap=1.0086244070720138
%%%mzn-stat: 2AutonomousSearchNumAssignedPredicatesEncountered=2339
%%%mzn-stat-end
